benchmarks_CP/INST_36x36/30/inst36x36_30_3.dzn
S=6;
start=[|
-1,	-1,	-1,	9,	32,	-1,	2,	-1,	-1,	-1,	30,	-1,	-1,	-1,	-1,	-1,	-1,	25,	19,	28,	-1,	16,	5,	21,	-1,	-1,	-1,	26,	6,	-1,	-1,	-1,	-1,	-1,	-1,	-1|
18,	2,	-1,	-1,	-1,	-1,	26,	24,	-1,	-1,	-1,	16,	20,	8,	-1,	29,	34,	-1,	-1,	-1,	-1,	27,	-1,	-1,	-1,	17,	-1,	-1,	12,	-1,	15,	21,	-1,	13,	19,	7|
-1,	-1,	-1,	-1,	-1,	-1,	-1,	-1,	-1,	-1,	9,	-1,	-1,	-1,	32,	-1,	-1,	2,	-1,	-1,	-1,	-1,	12,	-1,	13,	1,	-1,	-1,	-1,	-1,	-1,	26,	-1,	6,	-1,	-1|
-1,	-1,	16,	-1,	-1,	-1,	-1,	-1,	-1,	-1,	-1,	-1,	-1,	-1,	-1,	23,	9,	-1,	-1,	-1,	-1,	31,	13,	-1,	-1,	-1,	-1,	-1,	-1,	-1,	-1,	20,	-1,	32,	-1,	-1|
-1,	-1,	-1,	-1,	-1,	-1,	-1,	-1,	19,	-1,	-1,	-1,	11,	-1,	-1,	-1,	7,	16,	17,	3,	-1,	-1,	-1,	-1,	-1,	-1,	-1,	29,	-1,	-1,	-1,	-1,	-1,	-1,	9,	24|
-1,	7,	36,	-1,	-1,	24,	-1,	32,	18,	-1,	-1,	-1,	19,	-1,	5,	-1,	-1,	-1,	26,	-1,	10,	15,	-1,	1,	-1,	-1,	-1,	30,	9,	-1,	-1,	-1,	-1,	16,	-1,	-1|
-1,	-1,	-1,	-1,	-1,	-1,	23,	-1,	4,	-1,	31,	-1,	-1,	-1,	-1,	2,	-1,	-1,	-1,	9,	-1,	-1,	-1,	-1,	-1,	-1,	-1,	17,	10,	-1,	28,	29,	11,	-1,	5,	-1|
-1,	10,	4,	-1,	-1,	15,	-1,	-1,	-1,	16,	24,	28,	25,	21,	20,	-1,	-1,	8,	-1,	11,	-1,	-1,	-1,	-1,	-1,	6,	-1,	-1,	-1,	-1,	-1,	-1,	-1,	-1,	32,	-1|
17,	-1,	-1,	-1,	7,	-1,	-1,	-1,	-1,	-1,	18,	-1,	-1,	11,	-1,	4,	-1,	-1,	-1,	-1,	-1,	-1,	-1,	-1,	20,	31,	-1,	-1,	-1,	12,	-1,	-1,	-1,	-1,	-1,	-1|
-1,	-1,	-1,	-1,	30,	-1,	-1,	-1,	-1,	11,	27,	-1,	-1,	18,	13,	17,	-1,	-1,	28,	-1,	3,	19,	-1,	10,	-1,	16,	8,	-1,	-1,	-1,	-1,	-1,	-1,	-1,	23,	-1|
-1,	-1,	-1,	25,	20,	-1,	-1,	-1,	-1,	12,	-1,	26,	-1,	19,	-1,	-1,	-1,	-1,	6,	-1,	-1,	-1,	-1,	-1,	-1,	7,	32,	-1,	-1,	-1,	-1,	1,	-1,	-1,	8,	-1|
-1,	-1,	-1,	-1,	-1,	-1,	-1,	-1,	-1,	-1,	32,	-1,	-1,	-1,	34,	-1,	-1,	-1,	-1,	-1,	2,	-1,	-1,	35,	28,	-1,	15,	13,	-1,	-1,	-1,	6,	-1,	-1,	-1,	-1|
33,	-1,	31,	-1,	13,	-1,	-1,	7,	-1,	-1,	-1,	-1,	9,	20,	4,	12,	-1,	-1,	-1,	19,	-1,	35,	-1,	-1,	-1,	-1,	34,	-1,	5,	-1,	29,	-1,	-1,	-1,	1,	-1|
-1,	4,	-1,	-1,	-1,	-1,	-1,	-1,	-1,	31,	-1,	-1,	-1,	-1,	27,	-1,	-1,	-1,	-1,	32,	-1,	-1,	3,	24,	-1,	-1,	-1,	-1,	13,	-1,	-1,	-1,	-1,	-1,	-1,	-1|
-1,	-1,	-1,	23,	-1,	-1,	-1,	-1,	-1,	-1,	-1,	-1,	32,	-1,	-1,	13,	-1,	19,	30,	16,	-1,	-1,	15,	-1,	-1,	-1,	-1,	-1,	33,	-1,	-1,	-1,	21,	-1,	-1,	35|
-1,	-1,	-1,	-1,	-1,	-1,	13,	-1,	-1,	-1,	-1,	9,	33,	7,	-1,	-1,	-1,	21,	-1,	-1,	36,	25,	-1,	-1,	-1,	4,	-1,	-1,	-1,	-1,	6,	15,	-1,	-1,	-1,	-1|
-1,	-1,	-1,	-1,	-1,	-1,	-1,	35,	-1,	-1,	16,	19,	-1,	-1,	-1,	-1,	-1,	-1,	-1,	33,	-1,	10,	-1,	-1,	-1,	-1,	6,	-1,	32,	28,	-1,	-1,	-1,	14,	-1,	-1|
-1,	-1,	6,	-1,	-1,	-1,	-1,	-1,	-1,	34,	-1,	-1,	24,	30,	31,	-1,	-1,	-1,	-1,	-1,	-1,	4,	-1,	2,	-1,	-1,	-1,	23,	18,	-1,	-1,	-1,	9,	3,	-1,	-1|
-1,	-1,	-1,	35,	-1,	-1,	-1,	31,	25,	-1,	8,	14,	-1,	-1,	-1,	-1,	-1,	-1,	-1,	-1,	-1,	-1,	19,	11,	-1,	-1,	-1,	-1,	-1,	-1,	-1,	24,	-1,	-1,	-1,	-1|
-1,	-1,	-1,	-1,	-1,	-1,	-1,	11,	-1,	7,	-1,	-1,	-1,	-1,	30,	-1,	-1,	-1,	-1,	-1,	-1,	34,	-1,	16,	-1,	2,	-1,	-1,	23,	-1,	31,	17,	-1,	-1,	-1,	18|
-1,	-1,	-1,	6,	-1,	-1,	-1,	20,	-1,	9,	1,	2,	-1,	14,	-1,	-1,	-1,	-1,	-1,	-1,	-1,	-1,	-1,	23,	-1,	-1,	-1,	5,	-1,	4,	-1,	-1,	-1,	15,	-1,	-1|
-1,	13,	-1,	-1,	5,	-1,	-1,	12,	16,	-1,	26,	-1,	34,	-1,	9,	-1,	-1,	-1,	-1,	-1,	35,	-1,	8,	-1,	-1,	-1,	-1,	31,	-1,	-1,	7,	32,	-1,	-1,	-1,	-1|
-1,	-1,	-1,	-1,	27,	16,	-1,	21,	36,	23,	34,	-1,	-1,	26,	-1,	-1,	-1,	-1,	31,	-1,	-1,	-1,	-1,	4,	-1,	-1,	-1,	-1,	-1,	-1,	11,	-1,	22,	-1,	-1,	-1|
-1,	34,	25,	-1,	-1,	-1,	22,	-1,	3,	-1,	-1,	-1,	-1,	-1,	-1,	31,	24,	-1,	-1,	27,	20,	-1,	-1,	-1,	14,	28,	35,	-1,	-1,	-1,	-1,	9,	-1,	-1,	-1,	-1|
-1,	11,	-1,	34,	-1,	10,	16,	-1,	-1,	-1,	7,	-1,	-1,	-1,	-1,	-1,	20,	-1,	-1,	-1,	-1,	-1,	21,	13,	-1,	-1,	28,	-1,	-1,	-1,	-1,	-1,	8,	-1,	17,	15|
-1,	-1,	-1,	-1,	8,	9,	-1,	-1,	33,	30,	-1,	-1,	28,	-1,	23,	-1,	-1,	-1,	22,	10,	-1,	-1,	-1,	-1,	-1,	12,	-1,	-1,	20,	17,	-1,	-1,	-1,	-1,	26,	29|
13,	-1,	-1,	18,	-1,	19,	-1,	10,	-1,	5,	-1,	-1,	17,	6,	-1,	-1,	-1,	-1,	35,	8,	-1,	-1,	-1,	-1,	-1,	26,	-1,	-1,	-1,	-1,	-1,	34,	7,	-1,	-1,	1|
26,	-1,	-1,	-1,	-1,	31,	-1,	15,	9,	8,	-1,	-1,	27,	-1,	-1,	-1,	-1,	-1,	-1,	-1,	-1,	-1,	24,	-1,	-1,	-1,	-1,	-1,	-1,	-1,	-1,	36,	-1,	-1,	4,	6|
-1,	27,	-1,	-1,	-1,	33,	-1,	18,	6,	-1,	-1,	4,	16,	-1,	-1,	-1,	-1,	-1,	-1,	31,	-1,	-1,	-1,	9,	-1,	-1,	-1,	-1,	-1,	-1,	14,	23,	10,	2,	-1,	-1|
-1,	28,	-1,	-1,	-1,	-1,	-1,	-1,	-1,	-1,	-1,	25,	-1,	-1,	-1,	-1,	-1,	-1,	-1,	6,	-1,	-1,	20,	18,	1,	-1,	-1,	-1,	-1,	-1,	-1,	-1,	30,	-1,	11,	19|
34,	1,	-1,	-1,	-1,	-1,	-1,	-1,	-1,	-1,	-1,	-1,	-1,	2,	17,	6,	-1,	-1,	-1,	-1,	13,	-1,	16,	-1,	31,	-1,	10,	-1,	28,	-1,	-1,	-1,	-1,	-1,	-1,	25|
5,	-1,	-1,	-1,	-1,	-1,	8,	-1,	-1,	-1,	29,	-1,	-1,	25,	-1,	19,	32,	-1,	4,	-1,	27,	-1,	-1,	28,	2,	-1,	-1,	-1,	3,	6,	-1,	-1,	-1,	33,	-1,	-1|
-1,	-1,	-1,	29,	-1,	-1,	1,	-1,	-1,	-1,	2,	-1,	8,	-1,	36,	-1,	-1,	-1,	11,	-1,	25,	-1,	-1,	5,	-1,	-1,	-1,	19,	-1,	-1,	-1,	-1,	-1,	10,	-1,	-1|
-1,	-1,	32,	-1,	-1,	-1,	-1,	-1,	-1,	35,	-1,	-1,	-1,	-1,	-1,	-1,	-1,	4,	-1,	-1,	-1,	-1,	-1,	-1,	5,	-1,	-1,	20,	29,	36,	-1,	2,	-1,	-1,	-1,	-1|
-1,	12,	-1,	-1,	-1,	-1,	-1,	-1,	-1,	32,	22,	-1,	-1,	-1,	-1,	-1,	-1,	33,	20,	-1,	-1,	-1,	-1,	-1,	35,	-1,	24,	-1,	-1,	-1,	-1,	-1,	31,	-1,	-1,	-1|
2,	9,	28,	-1,	-1,	-1,	-1,	-1,	-1,	-1,	-1,	6,	13,	-1,	12,	-1,	-1,	-1,	1,	-1,	32,	-1,	-1,	-1,	-1,	34,	-1,	4,	21,	-1,	24,	-1,	20,	-1,	18,	11|];
